800 1600 
1 785 1
1 17 1
1 16 -1
1 2 -1
2 786 -1
2 18 -1
2 3 1
3 787 1
3 19 1
3 4 1
4 788 -1
4 20 -1
4 5 1
5 789 1
5 21 1
5 6 1
6 790 -1
6 22 1
6 7 1
7 791 -1
7 23 -1
7 8 1
8 792 -1
8 24 1
8 9 -1
9 793 1
9 25 1
9 10 -1
10 794 -1
10 26 1
10 11 -1
11 795 -1
11 27 1
11 12 1
12 796 -1
12 28 -1
12 13 -1
13 797 1
13 29 -1
13 14 -1
14 798 -1
14 30 -1
14 15 -1
15 799 1
15 31 -1
15 16 1
16 800 1
16 32 1
17 33 1
17 32 -1
17 18 -1
18 34 1
18 19 -1
19 35 1
19 20 1
20 36 1
20 21 1
21 37 1
21 22 1
22 38 1
22 23 -1
23 39 -1
23 24 -1
24 40 1
24 25 -1
25 41 -1
25 26 -1
26 42 1
26 27 1
27 43 -1
27 28 -1
28 44 1
28 29 1
29 45 1
29 30 -1
30 46 1
30 31 1
31 47 -1
31 32 -1
32 48 -1
33 49 -1
33 48 1
33 34 1
34 50 1
34 35 -1
35 51 1
35 36 1
36 52 -1
36 37 1
37 53 -1
37 38 -1
38 54 -1
38 39 -1
39 55 1
39 40 1
40 56 1
40 41 -1
41 57 -1
41 42 -1
42 58 1
42 43 -1
43 59 -1
43 44 1
44 60 -1
44 45 1
45 61 -1
45 46 1
46 62 1
46 47 1
47 63 1
47 48 -1
48 64 1
49 65 -1
49 64 -1
49 50 -1
50 66 1
50 51 -1
51 67 -1
51 52 -1
52 68 -1
52 53 1
53 69 1
53 54 1
54 70 1
54 55 1
55 71 -1
55 56 -1
56 72 1
56 57 1
57 73 1
57 58 1
58 74 1
58 59 -1
59 75 -1
59 60 1
60 76 -1
60 61 1
61 77 1
61 62 1
62 78 1
62 63 -1
63 79 -1
63 64 1
64 80 -1
65 81 1
65 80 1
65 66 -1
66 82 -1
66 67 1
67 83 -1
67 68 1
68 84 -1
68 69 -1
69 85 1
69 70 -1
70 86 -1
70 71 -1
71 87 -1
71 72 1
72 88 -1
72 73 -1
73 89 -1
73 74 -1
74 90 1
74 75 1
75 91 1
75 76 -1
76 92 -1
76 77 -1
77 93 -1
77 78 1
78 94 1
78 79 -1
79 95 -1
79 80 -1
80 96 -1
81 97 -1
81 96 -1
81 82 1
82 98 -1
82 83 -1
83 99 1
83 84 -1
84 100 -1
84 85 1
85 101 -1
85 86 -1
86 102 -1
86 87 -1
87 103 1
87 88 1
88 104 -1
88 89 -1
89 105 -1
89 90 -1
90 106 1
90 91 -1
91 107 -1
91 92 -1
92 108 1
92 93 1
93 109 1
93 94 -1
94 110 1
94 95 -1
95 111 1
95 96 1
96 112 1
97 113 -1
97 112 1
97 98 1
98 114 -1
98 99 -1
99 115 -1
99 100 1
100 116 1
100 101 1
101 117 1
101 102 1
102 118 -1
102 103 -1
103 119 -1
103 104 -1
104 120 1
104 105 1
105 121 -1
105 106 1
106 122 1
106 107 -1
107 123 -1
107 108 1
108 124 1
108 109 -1
109 125 -1
109 110 1
110 126 -1
110 111 -1
111 127 1
111 112 1
112 128 1
113 129 -1
113 128 1
113 114 -1
114 130 1
114 115 1
115 131 -1
115 116 -1
116 132 1
116 117 1
117 133 1
117 118 -1
118 134 1
118 119 -1
119 135 -1
119 120 1
120 136 1
120 121 -1
121 137 1
121 122 1
122 138 -1
122 123 1
123 139 1
123 124 1
124 140 -1
124 125 -1
125 141 1
125 126 -1
126 142 1
126 127 -1
127 143 1
127 128 -1
128 144 1
129 145 1
129 144 1
129 130 -1
130 146 -1
130 131 -1
131 147 1
131 132 1
132 148 -1
132 133 -1
133 149 1
133 134 -1
134 150 -1
134 135 -1
135 151 1
135 136 1
136 152 -1
136 137 -1
137 153 1
137 138 -1
138 154 1
138 139 1
139 155 1
139 140 1
140 156 -1
140 141 1
141 157 -1
141 142 -1
142 158 -1
142 143 -1
143 159 1
143 144 -1
144 160 1
145 161 -1
145 160 -1
145 146 1
146 162 -1
146 147 -1
147 163 -1
147 148 -1
148 164 -1
148 149 -1
149 165 -1
149 150 -1
150 166 1
150 151 -1
151 167 -1
151 152 -1
152 168 -1
152 153 -1
153 169 -1
153 154 1
154 170 1
154 155 -1
155 171 1
155 156 1
156 172 -1
156 157 1
157 173 -1
157 158 -1
158 174 1
158 159 -1
159 175 -1
159 160 -1
160 176 1
161 177 1
161 176 1
161 162 -1
162 178 1
162 163 -1
163 179 1
163 164 -1
164 180 1
164 165 1
165 181 -1
165 166 -1
166 182 -1
166 167 -1
167 183 1
167 168 -1
168 184 -1
168 169 -1
169 185 -1
169 170 -1
170 186 1
170 171 1
171 187 1
171 172 -1
172 188 1
172 173 -1
173 189 1
173 174 -1
174 190 1
174 175 1
175 191 -1
175 176 -1
176 192 1
177 193 -1
177 192 -1
177 178 1
178 194 1
178 179 1
179 195 -1
179 180 -1
180 196 1
180 181 -1
181 197 -1
181 182 -1
182 198 1
182 183 -1
183 199 1
183 184 1
184 200 1
184 185 -1
185 201 -1
185 186 1
186 202 -1
186 187 -1
187 203 1
187 188 1
188 204 1
188 189 -1
189 205 1
189 190 -1
190 206 1
190 191 1
191 207 1
191 192 1
192 208 -1
193 209 -1
193 208 -1
193 194 1
194 210 -1
194 195 1
195 211 1
195 196 -1
196 212 -1
196 197 -1
197 213 -1
197 198 -1
198 214 -1
198 199 -1
199 215 1
199 200 -1
200 216 -1
200 201 1
201 217 1
201 202 1
202 218 1
202 203 -1
203 219 1
203 204 -1
204 220 1
204 205 -1
205 221 -1
205 206 1
206 222 -1
206 207 -1
207 223 1
207 208 -1
208 224 -1
209 225 -1
209 224 -1
209 210 1
210 226 1
210 211 1
211 227 1
211 212 1
212 228 -1
212 213 1
213 229 -1
213 214 -1
214 230 -1
214 215 1
215 231 -1
215 216 1
216 232 1
216 217 1
217 233 1
217 218 -1
218 234 -1
218 219 1
219 235 -1
219 220 1
220 236 1
220 221 -1
221 237 1
221 222 1
222 238 -1
222 223 1
223 239 -1
223 224 -1
224 240 -1
225 241 1
225 240 1
225 226 -1
226 242 -1
226 227 -1
227 243 1
227 228 -1
228 244 1
228 229 -1
229 245 1
229 230 1
230 246 1
230 231 -1
231 247 1
231 232 1
232 248 1
232 233 -1
233 249 -1
233 234 1
234 250 1
234 235 -1
235 251 -1
235 236 -1
236 252 -1
236 237 1
237 253 1
237 238 -1
238 254 -1
238 239 1
239 255 1
239 240 -1
240 256 -1
241 257 1
241 256 -1
241 242 1
242 258 -1
242 243 -1
243 259 1
243 244 1
244 260 1
244 245 -1
245 261 1
245 246 -1
246 262 1
246 247 -1
247 263 1
247 248 1
248 264 1
248 249 1
249 265 -1
249 250 -1
250 266 1
250 251 1
251 267 1
251 252 -1
252 268 1
252 253 1
253 269 -1
253 254 1
254 270 1
254 255 -1
255 271 -1
255 256 -1
256 272 -1
257 273 1
257 272 1
257 258 -1
258 274 -1
258 259 -1
259 275 -1
259 260 -1
260 276 1
260 261 -1
261 277 1
261 262 -1
262 278 -1
262 263 1
263 279 1
263 264 -1
264 280 -1
264 265 -1
265 281 -1
265 266 1
266 282 1
266 267 1
267 283 1
267 268 -1
268 284 -1
268 269 -1
269 285 -1
269 270 1
270 286 -1
270 271 1
271 287 1
271 272 -1
272 288 1
273 289 1
273 288 -1
273 274 1
274 290 1
274 275 -1
275 291 -1
275 276 -1
276 292 -1
276 277 1
277 293 1
277 278 1
278 294 1
278 279 1
279 295 1
279 280 -1
280 296 1
280 281 -1
281 297 1
281 282 1
282 298 -1
282 283 -1
283 299 -1
283 284 1
284 300 1
284 285 -1
285 301 -1
285 286 -1
286 302 1
286 287 1
287 303 1
287 288 1
288 304 1
289 305 1
289 304 1
289 290 -1
290 306 -1
290 291 -1
291 307 1
291 292 1
292 308 -1
292 293 -1
293 309 -1
293 294 -1
294 310 -1
294 295 1
295 311 1
295 296 -1
296 312 1
296 297 -1
297 313 1
297 298 1
298 314 -1
298 299 1
299 315 1
299 300 -1
300 316 1
300 301 1
301 317 1
301 302 1
302 318 -1
302 303 1
303 319 -1
303 304 -1
304 320 -1
305 321 1
305 320 -1
305 306 1
306 322 1
306 307 -1
307 323 1
307 308 -1
308 324 1
308 309 -1
309 325 -1
309 310 1
310 326 1
310 311 -1
311 327 1
311 312 1
312 328 -1
312 313 1
313 329 -1
313 314 -1
314 330 -1
314 315 1
315 331 -1
315 316 -1
316 332 1
316 317 -1
317 333 1
317 318 -1
318 334 -1
318 319 1
319 335 1
319 320 1
320 336 1
321 337 1
321 336 1
321 322 1
322 338 -1
322 323 1
323 339 1
323 324 -1
324 340 1
324 325 1
325 341 -1
325 326 -1
326 342 -1
326 327 -1
327 343 -1
327 328 1
328 344 1
328 329 -1
329 345 1
329 330 1
330 346 1
330 331 -1
331 347 1
331 332 -1
332 348 -1
332 333 -1
333 349 1
333 334 -1
334 350 1
334 335 -1
335 351 1
335 336 1
336 352 1
337 353 -1
337 352 1
337 338 -1
338 354 1
338 339 1
339 355 -1
339 340 -1
340 356 -1
340 341 1
341 357 -1
341 342 1
342 358 -1
342 343 -1
343 359 1
343 344 -1
344 360 1
344 345 -1
345 361 -1
345 346 1
346 362 1
346 347 1
347 363 1
347 348 -1
348 364 1
348 349 -1
349 365 -1
349 350 -1
350 366 1
350 351 1
351 367 1
351 352 1
352 368 -1
353 369 1
353 368 -1
353 354 -1
354 370 -1
354 355 -1
355 371 -1
355 356 -1
356 372 1
356 357 1
357 373 -1
357 358 1
358 374 -1
358 359 1
359 375 1
359 360 1
360 376 1
360 361 -1
361 377 -1
361 362 -1
362 378 -1
362 363 -1
363 379 1
363 364 -1
364 380 1
364 365 1
365 381 -1
365 366 -1
366 382 -1
366 367 -1
367 383 1
367 368 1
368 384 1
369 385 -1
369 384 1
369 370 -1
370 386 -1
370 371 -1
371 387 1
371 372 1
372 388 1
372 373 1
373 389 -1
373 374 1
374 390 -1
374 375 1
375 391 -1
375 376 1
376 392 1
376 377 -1
377 393 1
377 378 -1
378 394 1
378 379 1
379 395 1
379 380 -1
380 396 -1
380 381 -1
381 397 1
381 382 1
382 398 1
382 383 -1
383 399 1
383 384 1
384 400 1
385 401 1
385 400 1
385 386 -1
386 402 1
386 387 -1
387 403 1
387 388 1
388 404 1
388 389 1
389 405 1
389 390 1
390 406 -1
390 391 -1
391 407 -1
391 392 -1
392 408 1
392 393 -1
393 409 1
393 394 1
394 410 1
394 395 -1
395 411 1
395 396 -1
396 412 -1
396 397 1
397 413 -1
397 398 -1
398 414 -1
398 399 1
399 415 -1
399 400 -1
400 416 1
401 417 1
401 416 1
401 402 1
402 418 -1
402 403 1
403 419 -1
403 404 1
404 420 -1
404 405 1
405 421 1
405 406 1
406 422 1
406 407 -1
407 423 -1
407 408 -1
408 424 1
408 409 -1
409 425 1
409 410 1
410 426 1
410 411 -1
411 427 1
411 412 1
412 428 1
412 413 -1
413 429 1
413 414 1
414 430 -1
414 415 -1
415 431 -1
415 416 1
416 432 1
417 433 -1
417 432 1
417 418 -1
418 434 -1
418 419 1
419 435 -1
419 420 -1
420 436 1
420 421 1
421 437 -1
421 422 -1
422 438 1
422 423 1
423 439 -1
423 424 -1
424 440 -1
424 425 1
425 441 1
425 426 -1
426 442 -1
426 427 1
427 443 1
427 428 -1
428 444 -1
428 429 1
429 445 -1
429 430 -1
430 446 -1
430 431 1
431 447 -1
431 432 1
432 448 1
433 449 1
433 448 1
433 434 1
434 450 -1
434 435 1
435 451 -1
435 436 1
436 452 -1
436 437 -1
437 453 -1
437 438 -1
438 454 1
438 439 1
439 455 -1
439 440 1
440 456 -1
440 441 1
441 457 -1
441 442 -1
442 458 -1
442 443 -1
443 459 -1
443 444 1
444 460 -1
444 445 -1
445 461 -1
445 446 -1
446 462 -1
446 447 1
447 463 -1
447 448 -1
448 464 -1
449 465 1
449 464 1
449 450 1
450 466 1
450 451 -1
451 467 1
451 452 -1
452 468 -1
452 453 -1
453 469 1
453 454 -1
454 470 -1
454 455 -1
455 471 1
455 456 -1
456 472 -1
456 457 1
457 473 -1
457 458 -1
458 474 1
458 459 1
459 475 -1
459 460 -1
460 476 -1
460 461 1
461 477 1
461 462 1
462 478 1
462 463 1
463 479 -1
463 464 1
464 480 -1
465 481 -1
465 480 1
465 466 1
466 482 1
466 467 -1
467 483 1
467 468 -1
468 484 1
468 469 1
469 485 1
469 470 1
470 486 -1
470 471 -1
471 487 1
471 472 1
472 488 1
472 473 -1
473 489 -1
473 474 1
474 490 -1
474 475 1
475 491 1
475 476 1
476 492 -1
476 477 -1
477 493 1
477 478 -1
478 494 -1
478 479 -1
479 495 -1
479 480 -1
480 496 -1
481 497 1
481 496 1
481 482 1
482 498 -1
482 483 -1
483 499 -1
483 484 1
484 500 1
484 485 -1
485 501 -1
485 486 1
486 502 1
486 487 1
487 503 1
487 488 1
488 504 -1
488 489 -1
489 505 1
489 490 -1
490 506 -1
490 491 1
491 507 -1
491 492 1
492 508 1
492 493 1
493 509 -1
493 494 -1
494 510 -1
494 495 -1
495 511 -1
495 496 1
496 512 1
497 513 1
497 512 1
497 498 -1
498 514 1
498 499 1
499 515 1
499 500 1
500 516 1
500 501 1
501 517 -1
501 502 1
502 518 1
502 503 1
503 519 1
503 504 1
504 520 1
504 505 -1
505 521 1
505 506 1
506 522 -1
506 507 1
507 523 -1
507 508 -1
508 524 -1
508 509 -1
509 525 -1
509 510 -1
510 526 1
510 511 -1
511 527 -1
511 512 -1
512 528 1
513 529 1
513 528 1
513 514 1
514 530 -1
514 515 1
515 531 1
515 516 1
516 532 1
516 517 -1
517 533 1
517 518 -1
518 534 1
518 519 -1
519 535 -1
519 520 -1
520 536 -1
520 521 1
521 537 1
521 522 1
522 538 1
522 523 1
523 539 -1
523 524 -1
524 540 1
524 525 1
525 541 -1
525 526 -1
526 542 1
526 527 -1
527 543 -1
527 528 1
528 544 1
529 545 1
529 544 1
529 530 -1
530 546 -1
530 531 -1
531 547 1
531 532 1
532 548 1
532 533 1
533 549 1
533 534 1
534 550 1
534 535 1
535 551 1
535 536 1
536 552 -1
536 537 -1
537 553 -1
537 538 1
538 554 -1
538 539 1
539 555 1
539 540 -1
540 556 -1
540 541 1
541 557 -1
541 542 1
542 558 -1
542 543 -1
543 559 1
543 544 1
544 560 -1
545 561 -1
545 560 -1
545 546 -1
546 562 1
546 547 -1
547 563 -1
547 548 1
548 564 1
548 549 -1
549 565 1
549 550 -1
550 566 -1
550 551 1
551 567 1
551 552 -1
552 568 -1
552 553 1
553 569 -1
553 554 -1
554 570 1
554 555 1
555 571 -1
555 556 -1
556 572 -1
556 557 1
557 573 -1
557 558 1
558 574 1
558 559 -1
559 575 -1
559 560 1
560 576 -1
561 577 1
561 576 -1
561 562 1
562 578 1
562 563 1
563 579 1
563 564 1
564 580 1
564 565 1
565 581 -1
565 566 1
566 582 1
566 567 1
567 583 1
567 568 1
568 584 1
568 569 -1
569 585 -1
569 570 1
570 586 1
570 571 -1
571 587 -1
571 572 -1
572 588 1
572 573 -1
573 589 1
573 574 -1
574 590 1
574 575 1
575 591 -1
575 576 1
576 592 1
577 593 1
577 592 -1
577 578 1
578 594 -1
578 579 1
579 595 -1
579 580 1
580 596 1
580 581 -1
581 597 1
581 582 1
582 598 1
582 583 1
583 599 1
583 584 -1
584 600 1
584 585 -1
585 601 1
585 586 1
586 602 1
586 587 1
587 603 1
587 588 -1
588 604 1
588 589 -1
589 605 -1
589 590 1
590 606 1
590 591 -1
591 607 -1
591 592 1
592 608 -1
593 609 -1
593 608 1
593 594 -1
594 610 -1
594 595 1
595 611 1
595 596 -1
596 612 -1
596 597 -1
597 613 -1
597 598 1
598 614 -1
598 599 1
599 615 1
599 600 -1
600 616 1
600 601 1
601 617 -1
601 602 -1
602 618 -1
602 603 1
603 619 -1
603 604 -1
604 620 -1
604 605 -1
605 621 1
605 606 -1
606 622 1
606 607 1
607 623 1
607 608 -1
608 624 -1
609 625 1
609 624 1
609 610 -1
610 626 -1
610 611 1
611 627 1
611 612 1
612 628 1
612 613 -1
613 629 -1
613 614 1
614 630 1
614 615 1
615 631 1
615 616 1
616 632 1
616 617 -1
617 633 -1
617 618 -1
618 634 -1
618 619 1
619 635 -1
619 620 1
620 636 -1
620 621 -1
621 637 -1
621 622 1
622 638 1
622 623 -1
623 639 1
623 624 -1
624 640 1
625 641 1
625 640 1
625 626 -1
626 642 1
626 627 1
627 643 1
627 628 -1
628 644 1
628 629 1
629 645 1
629 630 -1
630 646 1
630 631 1
631 647 -1
631 632 -1
632 648 -1
632 633 1
633 649 -1
633 634 -1
634 650 -1
634 635 1
635 651 1
635 636 -1
636 652 -1
636 637 1
637 653 -1
637 638 -1
638 654 -1
638 639 -1
639 655 1
639 640 1
640 656 -1
641 657 1
641 656 1
641 642 -1
642 658 -1
642 643 1
643 659 -1
643 644 -1
644 660 -1
644 645 -1
645 661 -1
645 646 1
646 662 1
646 647 -1
647 663 1
647 648 -1
648 664 1
648 649 -1
649 665 -1
649 650 -1
650 666 1
650 651 1
651 667 -1
651 652 -1
652 668 -1
652 653 1
653 669 -1
653 654 1
654 670 1
654 655 -1
655 671 1
655 656 -1
656 672 1
657 673 -1
657 672 1
657 658 -1
658 674 1
658 659 -1
659 675 1
659 660 1
660 676 -1
660 661 -1
661 677 -1
661 662 -1
662 678 1
662 663 -1
663 679 -1
663 664 -1
664 680 1
664 665 -1
665 681 -1
665 666 -1
666 682 -1
666 667 1
667 683 1
667 668 1
668 684 -1
668 669 1
669 685 1
669 670 1
670 686 -1
670 671 -1
671 687 1
671 672 1
672 688 1
673 689 -1
673 688 -1
673 674 -1
674 690 -1
674 675 1
675 691 -1
675 676 -1
676 692 -1
676 677 -1
677 693 -1
677 678 -1
678 694 -1
678 679 -1
679 695 -1
679 680 1
680 696 1
680 681 -1
681 697 -1
681 682 1
682 698 1
682 683 -1
683 699 1
683 684 -1
684 700 1
684 685 1
685 701 -1
685 686 1
686 702 1
686 687 -1
687 703 1
687 688 1
688 704 1
689 705 -1
689 704 1
689 690 1
690 706 -1
690 691 1
691 707 -1
691 692 1
692 708 -1
692 693 -1
693 709 1
693 694 -1
694 710 1
694 695 1
695 711 1
695 696 1
696 712 1
696 697 -1
697 713 -1
697 698 -1
698 714 1
698 699 1
699 715 -1
699 700 1
700 716 1
700 701 -1
701 717 1
701 702 -1
702 718 -1
702 703 1
703 719 -1
703 704 -1
704 720 -1
705 721 -1
705 720 1
705 706 -1
706 722 -1
706 707 -1
707 723 1
707 708 1
708 724 1
708 709 1
709 725 1
709 710 1
710 726 1
710 711 1
711 727 -1
711 712 -1
712 728 1
712 713 1
713 729 -1
713 714 -1
714 730 -1
714 715 1
715 731 1
715 716 1
716 732 -1
716 717 1
717 733 -1
717 718 -1
718 734 1
718 719 1
719 735 -1
719 720 -1
720 736 1
721 737 1
721 736 -1
721 722 -1
722 738 1
722 723 -1
723 739 -1
723 724 1
724 740 -1
724 725 1
725 741 1
725 726 1
726 742 -1
726 727 -1
727 743 -1
727 728 -1
728 744 -1
728 729 -1
729 745 1
729 730 -1
730 746 -1
730 731 1
731 747 1
731 732 -1
732 748 1
732 733 -1
733 749 -1
733 734 1
734 750 -1
734 735 1
735 751 1
735 736 -1
736 752 -1
737 753 1
737 752 1
737 738 1
738 754 -1
738 739 1
739 755 -1
739 740 -1
740 756 1
740 741 -1
741 757 -1
741 742 1
742 758 1
742 743 1
743 759 -1
743 744 1
744 760 1
744 745 1
745 761 -1
745 746 -1
746 762 1
746 747 -1
747 763 -1
747 748 1
748 764 1
748 749 -1
749 765 -1
749 750 -1
750 766 1
750 751 1
751 767 -1
751 752 1
752 768 -1
753 769 -1
753 768 -1
753 754 1
754 770 -1
754 755 -1
755 771 1
755 756 1
756 772 -1
756 757 1
757 773 -1
757 758 1
758 774 -1
758 759 -1
759 775 -1
759 760 -1
760 776 -1
760 761 -1
761 777 -1
761 762 1
762 778 1
762 763 -1
763 779 -1
763 764 -1
764 780 1
764 765 1
765 781 1
765 766 -1
766 782 1
766 767 -1
767 783 1
767 768 -1
768 784 1
769 785 1
769 784 -1
769 770 -1
770 786 1
770 771 1
771 787 1
771 772 1
772 788 -1
772 773 1
773 789 -1
773 774 -1
774 790 -1
774 775 1
775 791 -1
775 776 -1
776 792 -1
776 777 -1
777 793 -1
777 778 -1
778 794 -1
778 779 -1
779 795 1
779 780 1
780 796 1
780 781 1
781 797 1
781 782 1
782 798 -1
782 783 1
783 799 -1
783 784 -1
784 800 1
785 800 1
785 786 -1
786 787 1
787 788 -1
788 789 1
789 790 1
790 791 1
791 792 -1
792 793 -1
793 794 -1
794 795 -1
795 796 1
796 797 -1
797 798 1
798 799 -1
799 800 1
